Minimize
  - 15 y_0 - y_1 - 18 y_2 - 8 y_4 - 21 y_5 - 10 y_6 - 4 y_7 - 9 y_8 - 9 y_9
   + 63 x_0_1 + 93 x_0_6 + 67 x_0_7 + 88 x_0_8 + 96 x_0_9 + 78 x_1_2
   + 27 x_1_4 + 90 x_1_5 + 35 x_1_8 + 34 x_1_9 + 73 x_2_3 + 106 x_2_4
   + 14 x_2_5 + 110 x_2_6 + 88 x_2_7 + 76 x_2_8 + 95 x_2_9 + 5 x_3_1
   + 84 x_3_5 + 39 x_3_6 + 15 x_3_7 + 37 x_3_9 + 117 x_4_5 + 11 x_4_6
   + 49 x_4_8 + 35 x_4_9 + 120 x_5_6 + 99 x_5_7 + 83 x_5_8 + 28 x_6_9
   + 21 x_8_9 + 21 x_8_9 + 21 x_8_9 + 21 x_8_9 + 21 x_8_9 + 21 x_8_9
   + 21 x_8_9 + 21 x_8_9 + 21 x_8_9 + 21 x_8_9 + 21 x_8_9 + 21 x_8_9
   + 21 x_8_9 + 21 x_8_9 + 21 x_8_9 + 21 x_8_9 + 21 x_8_9 + 21 x_8_9
   + 21 x_8_9 + 21 x_8_9 + 21 x_8_9 + 21 x_8_9 + 21 x_8_9 + 21 x_8_9
   + 21 x_8_9 + 21 x_8_9 + 21 x_8_9 + 21 x_8_9 + 21 x_8_9 + 21 x_8_9
   + 21 x_8_9 + 21 x_8_9 + 21 x_8_9 + 21 x_8_9 + 21 x_8_9 + 21 x_8_9
   + 21 x_8_9 + 21 x_8_9 + 21 x_8_9 + 21 x_8_9 + 21 x_8_9 + 21 x_8_9
   + 21 x_8_9 + 21 x_8_9 + 21 x_8_9 + 21 x_8_9 + 21 x_8_9 + 21 x_8_9
   + 21 x_8_9 + 21 x_8_9 + 21 x_8_9 + 21 x_8_9 + 21 x_8_9 + 21 x_8_9
   + 21 x_8_9 + 21 x_8_9 + 21 x_8_9 + 21 x_8_9 + 21 x_8_9 + 21 x_8_9
   + 21 x_8_9 + 21 x_8_9 + 21 x_8_9 + 21 x_8_9 + 21 x_8_9 + 21 x_8_9
   + 21 x_8_9 + 21 x_8_9 + 21 x_8_9 + 21 x_8_9 + 21 x_8_9 + 21 x_8_9
   + 21 x_8_9 + 21 x_8_9 + 21 x_8_9 + 21 x_8_9 + 21 x_8_9 + 21 x_8_9
   + 21 x_8_9 + 21 x_8_9 + 21 x_8_9 + 21 x_8_9 + 21 x_8_9 + 21 x_8_9
   + 21 x_8_9 + 21 x_8_9 + 21 x_8_9 + 21 x_8_9 + 21 x_8_9 + 21 x_8_9
   + 21 x_8_9 + 21 x_8_9 + 21 x_8_9 + 21 x_8_9 + 21 x_8_9 + 21 x_8_9
   + 21 x_8_9 + 21 x_8_9 + 21 x_8_9 + 21 x_8_9 + 21 x_8_9 + 21 x_8_9
   + 21 x_8_9 + 21 x_8_9 + 21 x_8_9 + 21 x_8_9 + 21 x_8_9 + 21 x_8_9
   + 21 x_8_9 + 21 x_8_9 + 21 x_8_9 + 21 x_8_9 + 21 x_8_9 + 21 x_8_9
   + 21 x_8_9 + 21 x_8_9 + 21 x_8_9 + 21 x_8_9 + 21 x_8_9 + 21 x_8_9
   + 21 x_8_9 + 21 x_8_9 + 21 x_8_9 + 21 x_8_9 + 21 x_8_9 + 21 x_8_9
   + 21 x_8_9 + 21 x_8_9 + 21 x_8_9 + 21 x_8_9 + 21 x_8_9 + 21 x_8_9
   + 21 x_8_9 + 21 x_8_9 + 21 x_8_9 + 21 x_8_9 + 21 x_8_9 + 21 x_8_9
   + 21 x_8_9 + 21 x_8_9 + 21 x_8_9 + 21 x_8_9 + 21 x_8_9 + 21 x_8_9
   + 21 x_8_9 + 21 x_8_9 + 21 x_8_9 + 21 x_8_9 + 21 x_8_9 + 21 x_8_9
   + 21 x_8_9 + 21 x_8_9 + 21 x_8_9 + 21 x_8_9 + 21 x_8_9 + 21 x_8_9
   + 21 x_8_9 + 21 x_8_9 + 21 x_8_9 + 21 x_8_9 + 21 x_8_9 + 21 x_8_9
   + 21 x_8_9 + 21 x_8_9 + 21 x_8_9 + 21 x_8_9 + 21 x_8_9 + 21 x_8_9
   + 21 x_8_9 + 21 x_8_9 + 21 x_8_9 + 21 x_8_9 + 21 x_8_9 + 21 x_8_9
   + 21 x_8_9 + 21 x_8_9 + 21 x_8_9 + 21 x_8_9 + 21 x_8_9 + 21 x_8_9
   + 21 x_8_9 + 21 x_8_9 + 21 x_8_9 + 21 x_8_9 + 21 x_8_9 + 21 x_8_9
   + 21 x_8_9 + 21 x_8_9 + 21 x_8_9 + 21 x_8_9 + 21 x_8_9 + 21 x_8_9
   + 21 x_8_9 + 21 x_8_9 + 21 x_8_9 + 21 x_8_9 + 21 x_8_9 + 21 x_8_9
   + 21 x_8_9 + 21 x_8_9 + 21 x_8_9 + 21 x_8_9 + 21 x_8_9 + 21 x_8_9
   + 21 x_8_9 + 21 x_8_9 + 21 x_8_9 + 21 x_8_9 + 21 x_8_9 + 21 x_8_9
   + 21 x_8_9 + 21 x_8_9 + 21 x_8_9 + 21 x_8_9 + 21 x_8_9 + 21 x_8_9
   + 21 x_8_9 + 21 x_8_9 + 21 x_8_9 + 21 x_8_9 + 21 x_8_9 + 21 x_8_9
   + 21 x_8_9 + 21 x_8_9 + 21 x_8_9 + 21 x_8_9 + 21 x_8_9 + 21 x_8_9
   + 21 x_8_9 + 21 x_8_9 + 21 x_8_9 + 21 x_8_9 + 21 x_8_9 + 21 x_8_9
   + 21 x_8_9 + 21 x_8_9 + 21 x_8_9 + 21 x_8_9 + 21 x_8_9 + 21 x_8_9
   + 21 x_8_9 + 21 x_8_9 + 21 x_8_9 + 21 x_8_9 + 21 x_8_9 + 21 x_8_9
   + 21 x_8_9 + 21 x_8_9 + 21 x_8_9 + 21 x_8_9 + 21 x_8_9 + 21 x_8_9
   + 21 x_8_9 + 21 x_8_9 + 21 x_8_9 + 21 x_8_9 + 21 x_8_9 + 21 x_8_9
   + 21 x_8_9 + 21 x_8_9 + 21 x_8_9 + 21 x_8_9 + 21 x_8_9 + 21 x_8_9
   + 21 x_8_9 + 21 x_8_9 + 21 x_8_9 + 21 x_8_9 + 21 x_8_9 + 21 x_8_9
   + 21 x_8_9 + 21 x_8_9 + 21 x_8_9 + 21 x_8_9 + 21 x_8_9 + 21 x_8_9
   + 21 x_8_9 + 21 x_8_9 + 21 x_8_9 + 21 x_8_9 + 21 x_8_9 + 21 x_8_9
   + 21 x_8_9 + 95 Constant
Subject To
 c_0: y_0 = 1
 c_1_0: y_0 >= 1
 c_1_1: y_1 + y_3 >= 1
 c_1_2: y_2 >= 1
 c_1_3: y_1 + y_3 >= 1
 c_1_4: y_4 >= 1
 c_1_5: y_5 >= 1
 c_1_6: y_6 >= 1
 c_1_7: y_7 >= 1
 c_1_8: y_8 >= 1
 c_1_9: y_9 >= 1
 c_2_0: - 2 y_0 + x_0_1 + x_0_6 + x_0_7 + x_0_8 + x_0_9 = 0
 c_2_1: - 2 y_1 + x_0_1 + x_1_2 + x_1_4 + x_1_5 + x_1_8 + x_1_9 + x_3_1
   = 0
 c_2_2: - 2 y_2 + x_1_2 + x_2_3 + x_2_4 + x_2_5 + x_2_6 + x_2_7 + x_2_8
   + x_2_9 = 0
 c_2_3: - 2 y_3 + x_2_3 + x_3_1 + x_3_5 + x_3_6 + x_3_7 + x_3_9 = 0
 c_2_4: - 2 y_4 + x_1_4 + x_2_4 + x_4_5 + x_4_6 + x_4_8 + x_4_9 = 0
 c_2_5: - 2 y_5 + x_1_5 + x_2_5 + x_3_5 + x_4_5 + x_5_6 + x_5_7 + x_5_8
   = 0
 c_2_6: - 2 y_6 + x_0_6 + x_2_6 + x_3_6 + x_4_6 + x_5_6 + x_6_9 = 0
 c_2_7: - 2 y_7 + x_0_7 + x_2_7 + x_3_7 + x_5_7 = 0
 c_2_8: - 2 y_8 + x_0_8 + x_1_8 + x_2_8 + x_4_8 + x_5_8 + 283 x_8_9 = 0
 c_2_9: - 2 y_9 + x_0_9 + x_1_9 + x_2_9 + x_3_9 + x_4_9 + x_6_9 + 283 x_8_9
   = 0
Bounds
 Constant = 1
Binaries
 y_0 y_1 y_2 y_3 y_4 y_5 y_6 y_7 y_8 y_9 x_0_1 x_0_6 x_0_7 x_0_8 x_0_9
 x_1_2 x_1_4 x_1_5 x_1_8 x_1_9 x_2_3 x_2_4 x_2_5 x_2_6 x_2_7 x_2_8 x_2_9
 x_3_1 x_3_5 x_3_6 x_3_7 x_3_9 x_4_5 x_4_6 x_4_8 x_4_9 x_5_6 x_5_7 x_5_8
 x_6_9 x_8_9 x_8_9 x_8_9 x_8_9 x_8_9 x_8_9 x_8_9 x_8_9 x_8_9 x_8_9 x_8_9
 x_8_9 x_8_9 x_8_9 x_8_9 x_8_9 x_8_9 x_8_9 x_8_9 x_8_9 x_8_9 x_8_9 x_8_9
 x_8_9 x_8_9 x_8_9 x_8_9 x_8_9 x_8_9 x_8_9 x_8_9 x_8_9 x_8_9 x_8_9 x_8_9
 x_8_9 x_8_9 x_8_9 x_8_9 x_8_9 x_8_9 x_8_9 x_8_9 x_8_9 x_8_9 x_8_9 x_8_9
 x_8_9 x_8_9 x_8_9 x_8_9 x_8_9 x_8_9 x_8_9 x_8_9 x_8_9 x_8_9 x_8_9 x_8_9
 x_8_9 x_8_9 x_8_9 x_8_9 x_8_9 x_8_9 x_8_9 x_8_9 x_8_9 x_8_9 x_8_9 x_8_9
 x_8_9 x_8_9 x_8_9 x_8_9 x_8_9 x_8_9 x_8_9 x_8_9 x_8_9 x_8_9 x_8_9 x_8_9
 x_8_9 x_8_9 x_8_9 x_8_9 x_8_9 x_8_9 x_8_9 x_8_9 x_8_9 x_8_9 x_8_9 x_8_9
 x_8_9 x_8_9 x_8_9 x_8_9 x_8_9 x_8_9 x_8_9 x_8_9 x_8_9 x_8_9 x_8_9 x_8_9
 x_8_9 x_8_9 x_8_9 x_8_9 x_8_9 x_8_9 x_8_9 x_8_9 x_8_9 x_8_9 x_8_9 x_8_9
 x_8_9 x_8_9 x_8_9 x_8_9 x_8_9 x_8_9 x_8_9 x_8_9 x_8_9 x_8_9 x_8_9 x_8_9
 x_8_9 x_8_9 x_8_9 x_8_9 x_8_9 x_8_9 x_8_9 x_8_9 x_8_9 x_8_9 x_8_9 x_8_9
 x_8_9 x_8_9 x_8_9 x_8_9 x_8_9 x_8_9 x_8_9 x_8_9 x_8_9 x_8_9 x_8_9 x_8_9
 x_8_9 x_8_9 x_8_9 x_8_9 x_8_9 x_8_9 x_8_9 x_8_9 x_8_9 x_8_9 x_8_9 x_8_9
 x_8_9 x_8_9 x_8_9 x_8_9 x_8_9 x_8_9 x_8_9 x_8_9 x_8_9 x_8_9 x_8_9 x_8_9
 x_8_9 x_8_9 x_8_9 x_8_9 x_8_9 x_8_9 x_8_9 x_8_9 x_8_9 x_8_9 x_8_9 x_8_9
 x_8_9 x_8_9 x_8_9 x_8_9 x_8_9 x_8_9 x_8_9 x_8_9 x_8_9 x_8_9 x_8_9 x_8_9
 x_8_9 x_8_9 x_8_9 x_8_9 x_8_9 x_8_9 x_8_9 x_8_9 x_8_9 x_8_9 x_8_9 x_8_9
 x_8_9 x_8_9 x_8_9 x_8_9 x_8_9 x_8_9 x_8_9 x_8_9 x_8_9 x_8_9 x_8_9 x_8_9
 x_8_9 x_8_9 x_8_9 x_8_9 x_8_9 x_8_9 x_8_9 x_8_9 x_8_9 x_8_9 x_8_9 x_8_9
 x_8_9 x_8_9 x_8_9 x_8_9 x_8_9 x_8_9 x_8_9 x_8_9 x_8_9 x_8_9 x_8_9 x_8_9
 x_8_9 x_8_9 x_8_9 x_8_9 x_8_9 x_8_9 x_8_9 x_8_9 x_8_9 x_8_9 x_8_9 x_8_9
 x_8_9 x_8_9 x_8_9 x_8_9 x_8_9 x_8_9 x_8_9 x_8_9 x_8_9 x_8_9 x_8_9 x_8_9
 x_8_9 x_8_9 x_8_9 x_8_9 x_8_9 x_8_9 x_8_9 x_8_9
End
